(set-info :smt-lib-version 2.6)
(set-logic AUFBVFPDTNIRA)
(set-info :source |
Generated by: AdaCore
Generated on: 2020-03-06
Generator: SPARK
Application: Program verification for Ada
Target solver: Z3
|)
(set-info :license "https://creativecommons.org/licenses/by/4.0/")
(set-info :category "industrial")
(set-info :status unknown)
;;; generated by SMT-LIB2 driver
;;; SMT-LIB2 driver: bit-vectors, common part
;;; SMT-LIB2: integer arithmetic
(declare-sort string 0)

(declare-datatypes () ((tuple0 (Tuple0))))
(declare-sort us_private 0)

(declare-fun private__bool_eq (us_private us_private) Bool)

(declare-const us_null_ext__ us_private)

(declare-sort us_type_of_heap 0)

(declare-datatypes ()
((us_type_of_heap__ref
 (us_type_of_heap__refqtmk (us_type_of_heap__content us_type_of_heap)))))
(declare-sort us_image 0)

(declare-datatypes () ((int__ref (int__refqtmk (int__content Int)))))
(declare-datatypes () ((bool__ref (bool__refqtmk (bool__content Bool)))))
(declare-datatypes ()
((us_fixed__ref (us_fixed__refqtmk (us_fixed__content Int)))))
(declare-datatypes () ((real__ref (real__refqtmk (real__content Real)))))
(declare-datatypes ()
((us_private__ref (us_private__refqtmk (us_private__content us_private)))))
(define-fun int__ref___projection ((a int__ref)) Int (int__content a))

(define-fun us_fixed__ref___projection ((a us_fixed__ref)) Int (us_fixed__content
                                                               a))

(define-fun bool__ref___projection ((a bool__ref)) Bool (bool__content a))

(define-fun real__ref___projection ((a real__ref)) Real (real__content a))

(define-fun us_private__ref___projection ((a us_private__ref)) us_private 
  (us_private__content a))

(declare-const roll_active Bool)

(declare-const attr__ATTRIBUTE_ADDRESS Int)

(declare-const hdg_active Bool)

(declare-const attr__ATTRIBUTE_ADDRESS1 Int)

(declare-const nav_active Bool)

(declare-const attr__ATTRIBUTE_ADDRESS2 Int)

(declare-const lappr_active Bool)

(declare-const attr__ATTRIBUTE_ADDRESS3 Int)

(declare-const lga_active Bool)

(declare-const attr__ATTRIBUTE_ADDRESS4 Int)

(declare-const attr__ATTRIBUTE_ADDRESS5 Int)

(declare-const attr__ATTRIBUTE_ADDRESS6 Int)

(declare-const attr__ATTRIBUTE_ADDRESS7 Int)

(declare-const attr__ATTRIBUTE_ADDRESS8 Int)

(declare-const attr__ATTRIBUTE_ADDRESS9 Int)

(declare-const attr__ATTRIBUTE_ADDRESS10 Int)

(declare-const hdg_active_out1 Bool)

;; H
  (assert (= hdg_active_out1 hdg_active))

(declare-const lappr_active_out1 Bool)

;; H
  (assert (= lappr_active_out1 lappr_active))

(declare-const lga_active_out1 Bool)

;; H
  (assert (= lga_active_out1 lga_active))

(declare-const nav_active_out1 Bool)

;; H
  (assert (= nav_active_out1 nav_active))

(declare-const roll_active_out1 Bool)

;; H
  (assert (= roll_active_out1 roll_active))

(declare-const or_out1 Bool)

;; H
  (assert
  (= or_out1 (ite (= (ite (= (ite (= (ite (= roll_active_out1 true) true
                                     hdg_active_out1) true)
                             true nav_active_out1) true)
                     true lappr_active_out1) true)
             true lga_active_out1)))

(assert
;; defqtvc
 ;; File "at_least_one_lateral_mode_active.ads", line 15, characters 0-0
  (not (= or_out1 true)))
(check-sat)

(exit)
